50	
16892	
25492	
313	113
702	402
475	275
1031	831
237	37
748	548
845	645
1015	815
682	482
790	590
786	586
982	782
594	294
229	29
826	626
1103	903
937	737
1149	949
622	422
717	517
1085	885
1146	946
1063	863
1019	819
1108	908
1042	842
707	507
235	35
653	453
1188	988
828	528
331	131
951	751
394	194
703	503
660	360
268	68
714	514
1206	906
231	31
223	23
313	113
333	133
342	142
978	678
834	534
1236	936
784	584
1080	880
1021	821